Test: Urq4_5.cnf
Options: -no-inverting-opt
WARNING: for repeatability, setting FPU to use double precision
============================[ Problem Statistics ]=============================
|                                                                             |
|  Number of symmetries:           43                                         |
|  Number of invertingSyms:        43                                         |
|  Number of variables:            74                                         |
|  Number of clauses:             694                                         |
|  Parse time:                   0.00 s                                       |
|                                                                             |
============================[ Search Statistics ]==============================
| Conflicts |          ORIGINAL         |          LEARNT          | Progress |
|           |    Vars  Clauses Literals |    Limit  Clauses Lit/Cl |          |
===============================================================================
|       100 |      74      694     4272 |      254      124     21 |  0.019 % |
|       250 |      74      694     4272 |      279      168     19 |  0.019 % |
|       475 |      74      694     4272 |      307      305     20 |  0.019 % |
===============================================================================
restarts              : 6
conflicts             : 769            (64083 /sec)
symconflicts          : 219            (18250 /sec)
decisions             : 1200           (0.00 % random) (100000 /sec)
propagations          : 5182           (431833 /sec)
sympropagations       : 219            (18250 /sec)
conflict literals     : 14714          (0.68 % deleted)
literals     : 14714          (0.68 % deleted)

HEURISTIC USAGES
random                : 0           
activity w/ lookahead : 0           
activity no lookahead : 0           
original sp           : 1200        
sym count             : 0           

Memory used           : 5.00 MB
CPU time              : 0.012 s

UNSATISFIABLE
